c description: Random 3-CNF over 13 variables and 52 clauses
p cnf 13 52
9 11 -13 0
3 -7 12 0
-1 5 10 0
6 11 12 0
2 -7 12 0
3 10 -11 0
-9 -12 -13 0
-9 -10 -11 0
5 -10 -11 0
2 -8 11 0
7 11 13 0
2 3 6 0
-1 -2 -10 0
-5 -11 -12 0
-1 6 -10 0
11 -12 -13 0
2 9 13 0
2 7 -12 0
3 5 -7 0
4 -8 -13 0
-6 -7 -13 0
1 3 -13 0
-6 10 -11 0
7 11 -12 0
5 7 8 0
-3 7 -11 0
5 8 10 0
6 -8 13 0
-2 4 5 0
-1 9 -12 0
-2 -6 -13 0
2 7 -13 0
8 9 -12 0
-8 -10 13 0
-2 4 11 0
1 3 -11 0
1 -3 -10 0
-3 5 11 0
-4 -6 -8 0
2 12 -13 0
1 4 -12 0
5 7 10 0
-5 8 10 0
-3 -4 -10 0
-3 -11 12 0
2 -4 -10 0
-8 -10 -11 0
6 7 8 0
6 -8 -11 0
1 -9 13 0
-3 11 13 0
-2 7 -11 0